words_hard_train/2472.qaiger
aag 90 16 0 1 74
2
4
8
12
16
20
24
28
36
50
58
74
92
110
128
162
181
6 3 5
10 6 9
14 10 13
18 14 17
22 18 21
26 22 25
30 27 28
32 23 24
34 30 33
38 35 36
40 34 37
42 39 41
44 2 4
46 45 28
48 46 7
52 49 51
54 48 50
56 53 55
60 56 58
62 2 28
64 60 62
66 65 55
68 7 8
70 69 28
72 70 11
76 73 75
78 72 74
80 77 79
82 67 80
84 83 79
86 11 12
88 87 28
90 88 15
94 91 93
96 90 92
98 95 97
100 85 98
102 101 97
104 15 16
106 105 28
108 106 19
112 109 111
114 108 110
116 113 115
118 103 116
120 119 115
122 19 20
124 123 28
126 124 23
130 127 129
132 126 128
134 131 133
136 121 134
138 137 133
140 42 139
142 43 138
144 141 143
146 66 81
148 147 83
150 63 59
152 150 57
154 153 65
156 149 155
158 84 99
160 159 101
164 161 163
166 102 117
168 167 119
170 164 169
172 120 135
174 173 137
176 170 175
178 156 176
180 144 179
i0 2 y1[0]
i1 2 y1[1]
i2 2 y1[2]
i3 2 y1[3]
i4 2 y1[4]
i5 2 y1[5]
i6 2 y1[6]
i7 2 y1[7]
i8 1 x1[7]
i9 1 x1[2]
i10 1 x1[1]
i11 1 x1[3]
i12 1 x1[4]
i13 1 x1[5]
i14 1 x1[6]
i15 1 x1[0]
o0 bv[0]
c
simplified
  >
    1
    add
      subtract
        abs
          2 y1
        2 y1
      1 x1
