words_hard_train/2472.qaiger.qdimacs
p cnf 90 223
a 64 37 46 81 18 55 25 29 0
e 1 2 3 4 5 6 7 8 9 10 11 12 13 14 15 16 17 19 20 21 22 23 24 26 27 28 30 31 32 33 34 35 36 38 39 40 41 42 43 44 45 47 48 49 50 51 52 53 54 56 57 58 59 60 61 62 63 65 66 67 68 69 70 71 72 73 74 75 76 77 78 79 80 82 83 84 85 86 87 88 89 90 0
1 2 3 0
-1 -3 0
-2 -3 0
-3 4 5 0
3 -5 0
-4 -5 0
-5 6 7 0
5 -7 0
-6 -7 0
-7 8 9 0
7 -9 0
-8 -9 0
-9 10 11 0
9 -11 0
-10 -11 0
-11 12 13 0
11 -13 0
-12 -13 0
13 -14 15 0
-13 -15 0
14 -15 0
11 -12 16 0
-11 -16 0
12 -16 0
-15 16 17 0
15 -17 0
-16 -17 0
17 -18 19 0
-17 -19 0
18 -19 0
-17 18 20 0
17 -20 0
-18 -20 0
19 20 21 0
-19 -21 0
-20 -21 0
-1 -2 22 0
1 -22 0
2 -22 0
22 -14 23 0
-22 -23 0
14 -23 0
-23 3 24 0
23 -24 0
-3 -24 0
24 25 26 0
-24 -26 0
-25 -26 0
-24 -25 27 0
24 -27 0
25 -27 0
26 27 28 0
-26 -28 0
-27 -28 0
-28 -29 30 0
28 -30 0
29 -30 0
-1 -14 31 0
1 -31 0
14 -31 0
-30 -31 32 0
30 -32 0
31 -32 0
32 27 33 0
-32 -33 0
-27 -33 0
3 -4 34 0
-3 -34 0
4 -34 0
34 -14 35 0
-34 -35 0
14 -35 0
-35 5 36 0
35 -36 0
-5 -36 0
36 37 38 0
-36 -38 0
-37 -38 0
-36 -37 39 0
36 -39 0
37 -39 0
38 39 40 0
-38 -40 0
-39 -40 0
33 -40 41 0
-33 -41 0
40 -41 0
41 39 42 0
-41 -42 0
-39 -42 0
5 -6 43 0
-5 -43 0
6 -43 0
43 -14 44 0
-43 -44 0
14 -44 0
-44 7 45 0
44 -45 0
-7 -45 0
45 46 47 0
-45 -47 0
-46 -47 0
-45 -46 48 0
45 -48 0
46 -48 0
47 48 49 0
-47 -49 0
-48 -49 0
42 -49 50 0
-42 -50 0
49 -50 0
50 48 51 0
-50 -51 0
-48 -51 0
7 -8 52 0
-7 -52 0
8 -52 0
52 -14 53 0
-52 -53 0
14 -53 0
-53 9 54 0
53 -54 0
-9 -54 0
54 55 56 0
-54 -56 0
-55 -56 0
-54 -55 57 0
54 -57 0
55 -57 0
56 57 58 0
-56 -58 0
-57 -58 0
51 -58 59 0
-51 -59 0
58 -59 0
59 57 60 0
-59 -60 0
-57 -60 0
9 -10 61 0
-9 -61 0
10 -61 0
61 -14 62 0
-61 -62 0
14 -62 0
-62 11 63 0
62 -63 0
-11 -63 0
63 64 65 0
-63 -65 0
-64 -65 0
-63 -64 66 0
63 -66 0
64 -66 0
65 66 67 0
-65 -67 0
-66 -67 0
60 -67 68 0
-60 -68 0
67 -68 0
68 66 69 0
-68 -69 0
-66 -69 0
-21 69 70 0
21 -70 0
-69 -70 0
21 -69 71 0
-21 -71 0
69 -71 0
70 71 72 0
-70 -72 0
-71 -72 0
-33 40 73 0
33 -73 0
-40 -73 0
73 41 74 0
-73 -74 0
-41 -74 0
31 29 75 0
-31 -75 0
-29 -75 0
-75 28 76 0
75 -76 0
-28 -76 0
76 32 77 0
-76 -77 0
-32 -77 0
74 77 78 0
-74 -78 0
-77 -78 0
-42 49 79 0
42 -79 0
-49 -79 0
79 50 80 0
-79 -80 0
-50 -80 0
80 81 82 0
-80 -82 0
-81 -82 0
-51 58 83 0
51 -83 0
-58 -83 0
83 59 84 0
-83 -84 0
-59 -84 0
-82 84 85 0
82 -85 0
-84 -85 0
-60 67 86 0
60 -86 0
-67 -86 0
86 68 87 0
-86 -87 0
-68 -87 0
-85 87 88 0
85 -88 0
-87 -88 0
-78 -88 89 0
78 -89 0
88 -89 0
-72 89 90 0
72 -90 0
-89 -90 0
-90 0
